
Gurobi 11.0.3 (mac64[x86]) logging started Mon Mar 31 13:04:52 2025

Set parameter LogFile to value "Results/SanityCheck/first_try_v6_with_hydrogen.log"

Gurobi 11.0.3 (mac64[x86]) logging started Mon Mar 31 13:10:15 2025

Set parameter LogFile to value "Results/SanityCheck/first_try_v6_with_hydrogen.log"
